Route #1: 10 62 25 33 26 6 52 
Route #2: 35 51 34 39 19 22 
Route #3: 44 4 30 5 28 
Route #4: 31 49 46 56 8 59 16 
Route #5: 23 14 54 12 58 41 21 2 
Route #6: 37 43 24 17 11 57 38 53 
Route #7: 29 13 55 32 48 
Route #8: 50 20 45 18 
Route #9: 60 61 42 7 36 27 1 
Route #10: 40 3 47 15 9 
cost 1766.06
execution_time 28.944
